treewidth/data/GoethalsSeidelGraph_2_3.gr
p tw 16 72
1 2
1 9
1 10
1 12
1 14
1 16
1 4
1 6
1 8
2 9
2 10
2 11
2 13
2 16
2 4
2 5
2 7
9 10
9 12
9 14
9 15
9 3
9 5
9 7
10 11
10 13
10 15
10 3
10 6
10 8
11 12
11 13
11 14
11 3
11 4
11 7
11 8
12 13
12 14
12 3
12 4
12 5
12 6
13 14
13 15
13 16
13 5
13 6
14 15
14 16
14 7
14 8
15 16
15 3
15 4
15 6
15 7
16 3
16 4
16 5
16 8
3 4
3 5
3 8
4 6
4 7
5 6
5 7
5 8
6 7
6 8
7 8
