treewidth/data/GoethalsSeidelGraph_2_3.td
c width = 11, time = 0.210079
s td 5 12 16
b 1 1 7 8 9 11 12 13 14 15 16
b 2 1 4 5 7 8 9 10 11 12 13 15 16
b 3 1 2 4 5 7 9 10 11 13 16
b 4 3 4 5 8 9 10 11 12 15 16
b 5 1 4 5 6 7 8 10 12 13 15
2 3
2 4
2 5
1 2
